certificates/rado_a12_c88_N29.cnf
c Rad2 upper bound instance: x1 + 12*x2 - x3 = 88, interval [1,29]
p cnf 29 138
1 8 9 0
-1 -8 -9 0
1 9 21 0
-1 -9 -21 0
2 8 10 0
-2 -8 -10 0
2 9 22 0
-2 -9 -22 0
3 8 11 0
-3 -8 -11 0
3 9 23 0
-3 -9 -23 0
4 8 12 0
-4 -8 -12 0
4 9 24 0
-4 -9 -24 0
1 5 7 0
-1 -5 -7 0
5 8 13 0
-5 -8 -13 0
5 9 25 0
-5 -9 -25 0
2 6 7 0
-2 -6 -7 0
6 8 14 0
-6 -8 -14 0
6 9 26 0
-6 -9 -26 0
3 7 0
-3 -7 0
7 8 15 0
-7 -8 -15 0
7 9 27 0
-7 -9 -27 0
4 7 8 0
-4 -7 -8 0
8 16 0
-8 -16 0
8 9 28 0
-8 -9 -28 0
5 7 9 0
-5 -7 -9 0
8 9 17 0
-8 -9 -17 0
9 29 0
-9 -29 0
6 7 10 0
-6 -7 -10 0
8 10 18 0
-8 -10 -18 0
7 11 0
-7 -11 0
8 11 19 0
-8 -11 -19 0
7 8 12 0
-7 -8 -12 0
8 12 20 0
-8 -12 -20 0
7 9 13 0
-7 -9 -13 0
8 13 21 0
-8 -13 -21 0
7 10 14 0
-7 -10 -14 0
8 14 22 0
-8 -14 -22 0
7 11 15 0
-7 -11 -15 0
8 15 23 0
-8 -15 -23 0
7 12 16 0
-7 -12 -16 0
8 16 24 0
-8 -16 -24 0
1 6 17 0
-1 -6 -17 0
7 13 17 0
-7 -13 -17 0
8 17 25 0
-8 -17 -25 0
2 6 18 0
-2 -6 -18 0
7 14 18 0
-7 -14 -18 0
8 18 26 0
-8 -18 -26 0
3 6 19 0
-3 -6 -19 0
7 15 19 0
-7 -15 -19 0
8 19 27 0
-8 -19 -27 0
4 6 20 0
-4 -6 -20 0
7 16 20 0
-7 -16 -20 0
8 20 28 0
-8 -20 -28 0
5 6 21 0
-5 -6 -21 0
7 17 21 0
-7 -17 -21 0
8 21 29 0
-8 -21 -29 0
6 22 0
-6 -22 0
7 18 22 0
-7 -18 -22 0
6 7 23 0
-6 -7 -23 0
7 19 23 0
-7 -19 -23 0
6 8 24 0
-6 -8 -24 0
7 20 24 0
-7 -20 -24 0
6 9 25 0
-6 -9 -25 0
7 21 25 0
-7 -21 -25 0
6 10 26 0
-6 -10 -26 0
7 22 26 0
-7 -22 -26 0
6 11 27 0
-6 -11 -27 0
7 23 27 0
-7 -23 -27 0
6 12 28 0
-6 -12 -28 0
7 24 28 0
-7 -24 -28 0
1 5 29 0
-1 -5 -29 0
6 13 29 0
-6 -13 -29 0
7 25 29 0
-7 -25 -29 0
