certificates/rado_a12_c88_N29.drat
7 -29 0
-29 0
9 0
-7 0
3 0
11 0
25 0
-23 0
-8 0
-5 0
-6 0
27 0
0
